Route #1: 34 41 4 30 42 37 
Route #2: 32 11 23 21 
Route #3: 19 29 18 16 7 
Route #4: 12 28 3 33 43 15 
Route #5: 40 20 35 27 31 1 17 5 
Route #6: 13 10 38 22 8 9 6 
Route #7: 26 39 24 14 36 2 25 
cost 997.388